W=5;
H=5;

MAX_TIME=24;
MAX_TRACKS=10;

TARGET=(3,5);

TRAINS=[(2,1,TOP),(4,1,DOWN)];
DECOYS=[];

INIT_POS=[
(1,3,ESWITCH_L_R_D),
(2,1,STRAIGHT_TD),
(3,2,STRAIGHT_RL),
(3,3,STRAIGHT_RL),
(3,4,STRAIGHT_RL),
(3,5,STRAIGHT_RL),
(4,1,STRAIGHT_TD),
(4,3,ESWITCH_R_L_D),
(5,3,ESWITCH_R_L_T),
];
TUNNEL_PAIRS=[
  (3, 1, RIGHT, 4, 5, LEFT),
  (1, 5, LEFT, 5, 5, LEFT),
];

GATES=[];
ACTIVATIONS=[];

DSWITCHES=[];
STATIONS=[];

SEMAPHORE_SUPPLY=0;
